0 0 106 
1 0 109 
2 0 11 
3 0 113 
4 0 120 
5 0 123 
6 0 127 
7 0 134 
8 0 137 
9 0 141 
10 0 145 
11 0 148 
12 0 15 
13 0 151 
14 0 155 
15 0 162 
16 0 165 
17 0 169 
18 0 176 
19 0 179 
20 0 186 
21 0 190 
22 0 193 
23 0 197 
24 0 200 
25 0 204 
26 0 211 
27 0 214 
28 0 218 
29 0 22 
30 0 221 
31 0 228 
32 0 235 
33 0 242 
34 0 249 
35 0 25 
36 0 29 
37 0 32 
38 0 36 
39 0 39 
40 0 43 
41 0 50 
42 0 53 
43 0 54 
44 0 57 
45 0 64 
46 0 67 
47 0 7 
48 0 71 
49 0 78 
50 0 8 
51 0 81 
52 0 85 
53 0 92 
54 0 95 
55 0 99 
56 2 0 
57 2 101 
58 2 103 
59 2 105 
60 2 107 
61 2 109 
62 2 11 
63 2 112 
64 2 116 
65 2 123 
66 2 128 
67 2 13 
68 2 134 
69 2 140 
70 2 142 
71 2 149 
72 2 157 
73 2 160 
74 2 162 
75 2 165 
76 2 166 
77 2 168 
78 2 17 
79 2 170 
80 2 171 
81 2 173 
82 2 175 
83 2 176 
84 2 178 
85 2 181 
86 2 183 
87 2 185 
88 2 187 
89 2 189 
90 2 19 
91 2 190 
92 2 191 
93 2 194 
94 2 197 
95 2 200 
96 2 206 
97 2 209 
98 2 211 
99 2 213 
100 2 216 
101 2 217 
102 2 218 
103 2 222 
104 2 234 
105 2 24 
106 2 241 
107 2 246 
108 2 251 
109 2 264 
110 2 29 
111 2 31 
112 2 33 
113 2 35 
114 2 36 
115 2 38 
116 2 39 
117 2 41 
118 2 42 
119 2 44 
120 2 46 
121 2 52 
122 2 55 
123 2 57 
124 2 60 
125 2 62 
126 2 67 
127 2 69 
128 2 72 
129 2 74 
130 2 79 
131 2 83 
132 2 85 
133 2 88 
134 2 90 
135 2 93 
136 2 95 
137 2 97 
138 2 99 
139 3 0 
140 3 264 
141 4 0 
142 4 264 
143 5 0 
144 5 100 
145 5 104 
146 5 108 
147 5 112 
148 5 121 
149 5 124 
150 5 128 
151 5 138 
152 5 161 
153 5 165 
154 5 167 
155 5 170 
156 5 172 
157 5 175 
158 5 177 
159 5 179 
160 5 182 
161 5 187 
162 5 195 
163 5 201 
164 5 203 
165 5 207 
166 5 214 
167 5 222 
168 5 226 
169 5 23 
170 5 230 
171 5 25 
172 5 255 
173 5 259 
174 5 264 
175 5 35 
176 5 38 
177 5 40 
178 5 55 
179 5 57 
180 5 8 
181 5 89 
182 5 93 
183 5 96 
184 6 0 
185 7 0 
186 8 0 
187 9 0 
188 9 159 
189 9 168 
190 9 173 
191 9 180 
192 9 185 
193 9 33 
194 9 36 
195 9 87 
196 9 94 
197 10 123 
198 10 127 
199 10 159 
200 10 166 
201 10 168 
202 10 171 
203 10 173 
204 10 176 
205 10 178 
206 10 180 
207 10 185 
208 10 194 
209 10 200 
210 10 206 
211 10 213 
212 10 221 
213 10 24 
214 10 33 
215 10 36 
216 10 39 
217 10 54 
218 10 87 
219 10 94 
220 11 123 
221 11 127 
222 11 136 
223 11 159 
224 11 166 
225 11 168 
226 11 171 
227 11 173 
228 11 176 
229 11 178 
230 11 180 
231 11 185 
232 11 190 
233 11 194 
234 11 200 
235 11 202 
236 11 206 
237 11 21 
238 11 213 
239 11 217 
240 11 221 
241 11 224 
242 11 24 
243 11 253 
244 11 33 
245 11 36 
246 11 39 
247 11 46 
248 11 54 
249 11 87 
250 11 94 
251 12 118 
252 12 227 
253 12 256 
254 12 5 
255 15 121 
256 15 124 
257 15 128 
258 15 167 
259 15 172 
260 15 177 
261 15 179 
262 15 195 
263 15 201 
264 15 203 
265 15 207 
266 15 214 
267 15 222 
268 15 230 
269 15 25 
270 15 259 
271 15 40 
272 15 55 
273 15 57 
274 15 8 
275 17 11 
276 17 116 
277 17 13 
278 17 134 
279 17 140 
280 17 142 
281 17 157 
282 17 17 
283 17 19 
284 17 197 
285 17 209 
286 17 211 
287 17 234 
288 17 241 
289 17 246 
290 17 251 
291 17 29 
292 17 31 
293 17 42 
294 17 43 
295 17 44 
296 17 52 
297 17 60 
298 17 62 
299 17 67 
300 17 69 
301 17 72 
302 17 74 
303 17 79 
304 17 83 
305 17 85 
306 18 149 
307 18 191 
308 18 218 
309 18 46 
310 25 100 
311 25 102 
312 25 110 
313 25 115 
314 25 118 
315 25 121 
316 25 123 
317 25 124 
318 25 129 
319 25 13 
320 25 140 
321 25 141 
322 25 142 
323 25 145 
324 25 146 
325 25 147 
326 25 149 
327 25 151 
328 25 152 
329 25 155 
330 25 157 
331 25 160 
332 25 162 
333 25 164 
334 25 165 
335 25 166 
336 25 167 
337 25 169 
338 25 172 
339 25 174 
340 25 177 
341 25 179 
342 25 18 
343 25 182 
344 25 184 
345 25 187 
346 25 189 
347 25 191 
348 25 193 
349 25 199 
350 25 201 
351 25 205 
352 25 206 
353 25 207 
354 25 209 
355 25 21 
356 25 211 
357 25 212 
358 25 214 
359 25 215 
360 25 217 
361 25 219 
362 25 221 
363 25 223 
364 25 225 
365 25 227 
366 25 229 
367 25 23 
368 25 231 
369 25 232 
370 25 236 
371 25 237 
372 25 238 
373 25 241 
374 25 248 
375 25 250 
376 25 26 
377 25 28 
378 25 32 
379 25 34 
380 25 36 
381 25 38 
382 25 40 
383 25 41 
384 25 43 
385 25 45 
386 25 47 
387 25 49 
388 25 55 
389 25 58 
390 25 6 
391 25 65 
392 25 69 
393 25 70 
394 25 80 
395 25 95 
396 25 97 
397 28 0 
398 28 106 
399 28 130 
400 28 132 
401 28 135 
402 28 137 
403 28 152 
404 28 156 
405 28 161 
406 28 173 
407 28 178 
408 28 188 
409 28 192 
410 28 211 
411 28 213 
412 28 220 
413 28 223 
414 28 226 
415 28 231 
416 28 235 
417 28 254 
418 28 258 
419 28 37 
420 28 41 
421 28 45 
422 28 53 
423 28 55 
424 28 73 
425 28 75 
426 29 0 
427 30 0 
428 31 0 
429 31 149 
430 31 38 
431 32 0 
432 32 149 
433 32 152 
434 32 154 
435 32 159 
436 32 171 
437 32 176 
438 32 186 
439 32 209 
440 32 221 
441 32 224 
442 32 229 
443 32 232 
444 32 264 
445 32 38 
446 32 41 
447 32 43 
448 33 0 
449 33 129 
450 33 150 
451 33 154 
452 33 159 
453 33 171 
454 33 176 
455 33 186 
456 33 209 
457 33 212 
458 33 219 
459 33 221 
460 33 224 
461 33 229 
462 33 232 
463 33 240 
464 33 264 
465 33 36 
466 33 39 
467 33 43 
468 33 54 
469 33 77 
470 34 0 
471 34 104 
472 34 120 
473 34 129 
474 34 131 
475 34 134 
476 34 149 
477 34 154 
478 34 159 
479 34 171 
480 34 176 
481 34 186 
482 34 195 
483 34 209 
484 34 212 
485 34 219 
486 34 221 
487 34 224 
488 34 229 
489 34 232 
490 34 240 
491 34 252 
492 34 264 
493 34 36 
494 34 38 
495 34 43 
496 34 51 
497 34 54 
498 34 72 
499 34 77 
500 35 0 
501 35 232 
502 35 255 
503 35 264 
504 36 0 
505 37 0 
506 38 130 
507 38 132 
508 38 135 
509 38 137 
510 38 151 
511 38 213 
512 38 220 
513 38 235 
514 38 258 
515 38 37 
516 38 40 
517 38 55 
518 38 73 
519 38 75 
520 39 241 
521 40 100 
522 40 102 
523 40 110 
524 40 115 
525 40 118 
526 40 13 
527 40 140 
528 40 145 
529 40 165 
530 40 166 
531 40 167 
532 40 169 
533 40 18 
534 40 182 
535 40 184 
536 40 205 
537 40 21 
538 40 215 
539 40 217 
540 40 23 
541 40 237 
542 40 238 
543 40 248 
544 40 250 
545 40 26 
546 40 28 
547 40 32 
548 40 34 
549 40 47 
550 40 49 
551 40 58 
552 40 6 
553 40 70 
554 40 95 
555 40 97 
556 41 121 
557 41 122 
558 41 123 
559 41 141 
560 41 146 
561 41 206 
562 41 233 
563 41 234 
564 41 65 
565 48 10 
566 48 101 
567 48 104 
568 48 106 
569 48 108 
570 48 110 
571 48 112 
572 48 114 
573 48 117 
574 48 119 
575 48 121 
576 48 123 
577 48 125 
578 48 127 
579 48 166 
580 48 168 
581 48 170 
582 48 173 
583 48 175 
584 48 177 
585 48 179 
586 48 181 
587 48 183 
588 48 189 
589 48 202 
590 48 203 
591 48 204 
592 48 206 
593 48 208 
594 48 209 
595 48 210 
596 48 212 
597 48 214 
598 48 215 
599 48 216 
600 48 217 
601 48 22 
602 48 220 
603 48 222 
604 48 224 
605 48 226 
606 48 227 
607 48 229 
608 48 230 
609 48 231 
610 48 233 
611 48 235 
612 48 236 
613 48 238 
614 48 239 
615 48 24 
616 48 240 
617 48 241 
618 48 244 
619 48 246 
620 48 256 
621 48 258 
622 48 26 
623 48 28 
624 48 31 
625 48 33 
626 48 35 
627 48 37 
628 48 42 
629 48 44 
630 48 46 
631 48 47 
632 48 48 
633 48 49 
634 48 51 
635 48 55 
636 48 56 
637 48 57 
638 48 6 
639 48 60 
640 48 67 
641 48 71 
642 48 75 
643 48 87 
644 48 89 
645 48 91 
646 48 93 
647 48 95 
648 48 97 
649 48 99 
650 51 100 
651 51 104 
652 51 106 
653 51 108 
654 51 11 
655 51 110 
656 51 112 
657 51 114 
658 51 117 
659 51 119 
660 51 121 
661 51 123 
662 51 125 
663 51 127 
664 51 13 
665 51 130 
666 51 132 
667 51 134 
668 51 139 
669 51 145 
670 51 151 
671 51 157 
672 51 16 
673 51 164 
674 51 166 
675 51 168 
676 51 170 
677 51 173 
678 51 175 
679 51 177 
680 51 179 
681 51 18 
682 51 181 
683 51 183 
684 51 186 
685 51 193 
686 51 196 
687 51 200 
688 51 208 
689 51 214 
690 51 220 
691 51 223 
692 51 226 
693 51 228 
694 51 23 
695 51 238 
696 51 245 
697 51 251 
698 51 27 
699 51 31 
700 51 35 
701 51 40 
702 51 43 
703 51 60 
704 51 62 
705 51 65 
706 51 67 
707 51 69 
708 51 75 
709 51 78 
710 51 81 
711 51 83 
712 51 88 
713 51 92 
714 51 96 
715 54 233 
716 54 36 
717 55 136 
718 55 206 
719 55 21 
720 55 212 
721 55 224 
722 55 233 
723 55 236 
724 55 243 
725 55 33 
726 55 36 
727 55 41 
728 55 86 
729 56 10 
730 56 103 
731 56 116 
732 56 136 
733 56 165 
734 56 172 
735 56 206 
736 56 21 
737 56 212 
738 56 219 
739 56 222 
740 56 224 
741 56 227 
742 56 234 
743 56 236 
744 56 243 
745 56 30 
746 56 33 
747 56 36 
748 56 41 
749 56 59 
750 56 66 
751 56 74 
752 56 86 
753 57 10 
754 57 103 
755 57 116 
756 57 12 
757 57 129 
758 57 136 
759 57 15 
760 57 165 
761 57 172 
762 57 185 
763 57 191 
764 57 194 
765 57 206 
766 57 21 
767 57 212 
768 57 219 
769 57 222 
770 57 224 
771 57 227 
772 57 233 
773 57 236 
774 57 243 
775 57 252 
776 57 30 
777 57 33 
778 57 36 
779 57 41 
780 57 59 
781 57 63 
782 57 66 
783 57 74 
784 57 77 
785 57 80 
786 57 86 
787 58 136 
788 58 161 
789 58 248 
790 58 36 
791 61 104 
792 61 106 
793 61 108 
794 61 11 
795 61 110 
796 61 112 
797 61 114 
798 61 117 
799 61 119 
800 61 121 
801 61 123 
802 61 125 
803 61 127 
804 61 13 
805 61 130 
806 61 132 
807 61 134 
808 61 139 
809 61 145 
810 61 151 
811 61 157 
812 61 16 
813 61 164 
814 61 166 
815 61 168 
816 61 170 
817 61 173 
818 61 175 
819 61 177 
820 61 179 
821 61 18 
822 61 181 
823 61 183 
824 61 186 
825 61 220 
826 61 223 
827 61 228 
828 61 235 
829 61 251 
830 61 31 
831 61 60 
832 61 62 
833 61 67 
834 61 69 
835 61 75 
836 61 78 
837 61 81 
838 61 83 
839 63 189 
840 63 202 
841 63 210 
842 63 216 
843 63 217 
844 63 230 
845 63 231 
846 63 240 
847 63 241 
848 63 55 
849 63 6 
850 63 71 
851 64 137 
852 64 139 
853 64 141 
854 64 143 
855 64 145 
856 64 147 
857 64 149 
858 64 151 
859 64 153 
860 64 155 
861 64 156 
862 64 158 
863 64 159 
864 64 203 
865 64 38 
866 64 39 
867 64 47 
868 64 48 
869 64 49 
870 64 51 
871 64 56 
872 70 0 
873 71 0 
874 71 107 
875 71 108 
876 71 109 
877 71 11 
878 71 111 
879 71 114 
880 71 115 
881 71 116 
882 71 119 
883 71 120 
884 71 121 
885 71 124 
886 71 125 
887 71 126 
888 71 13 
889 71 131 
890 71 132 
891 71 133 
892 71 136 
893 71 138 
894 71 139 
895 71 142 
896 71 143 
897 71 16 
898 71 18 
899 71 19 
900 71 190 
901 71 193 
902 71 198 
903 71 199 
904 71 201 
905 71 202 
906 71 203 
907 71 204 
908 71 206 
909 71 209 
910 71 21 
911 71 211 
912 71 212 
913 71 215 
914 71 216 
915 71 217 
916 71 221 
917 71 223 
918 71 225 
919 71 227 
920 71 228 
921 71 229 
922 71 23 
923 71 230 
924 71 232 
925 71 234 
926 71 236 
927 71 239 
928 71 240 
929 71 241 
930 71 242 
931 71 248 
932 71 250 
933 71 27 
934 71 29 
935 71 30 
936 71 32 
937 71 33 
938 71 35 
939 71 36 
940 71 38 
941 71 40 
942 71 42 
943 71 43 
944 71 44 
945 71 45 
946 71 50 
947 71 52 
948 71 54 
949 71 58 
950 71 59 
951 71 60 
952 71 67 
953 74 106 
954 74 117 
955 74 122 
956 74 127 
957 74 139 
958 74 143 
959 74 149 
960 74 157 
961 74 165 
962 74 173 
963 74 18 
964 74 181 
965 74 184 
966 74 188 
967 74 191 
968 74 197 
969 74 20 
970 74 211 
971 74 213 
972 74 222 
973 74 227 
974 74 23 
975 74 234 
976 74 236 
977 74 238 
978 74 253 
979 74 256 
980 74 258 
981 74 26 
982 74 29 
983 74 32 
984 74 35 
985 74 37 
986 74 40 
987 74 51 
988 74 57 
989 74 65 
990 74 67 
991 74 69 
992 74 7 
993 74 74 
994 74 82 
995 74 90 
996 74 98 
997 77 100 
998 77 114 
999 77 136 
1000 77 145 
1001 77 151 
1002 77 159 
1003 77 167 
1004 77 175 
1005 77 70 
1006 77 76 
1007 77 84 
1008 77 92 
1009 78 100 
1010 78 114 
1011 78 136 
1012 78 139 
1013 78 143 
1014 78 145 
1015 78 151 
1016 78 159 
1017 78 16 
1018 78 167 
1019 78 175 
1020 78 209 
1021 78 21 
1022 78 220 
1023 78 225 
1024 78 232 
1025 78 27 
1026 78 30 
1027 78 33 
1028 78 38 
1029 78 49 
1030 78 54 
1031 78 70 
1032 78 76 
1033 78 84 
1034 78 92 
1035 79 100 
1036 79 114 
1037 79 137 
1038 79 141 
1039 79 145 
1040 79 151 
1041 79 159 
1042 79 16 
1043 79 167 
1044 79 175 
1045 79 19 
1046 79 190 
1047 79 209 
1048 79 21 
1049 79 212 
1050 79 220 
1051 79 225 
1052 79 232 
1053 79 235 
1054 79 27 
1055 79 30 
1056 79 33 
1057 79 36 
1058 79 38 
1059 79 49 
1060 79 54 
1061 79 66 
1062 79 70 
1063 79 76 
1064 79 84 
1065 79 92 
1066 80 101 
1067 80 114 
1068 80 132 
1069 80 136 
1070 80 145 
1071 80 152 
1072 80 16 
1073 80 160 
1074 80 168 
1075 80 176 
1076 80 182 
1077 80 19 
1078 80 190 
1079 80 195 
1080 80 209 
1081 80 21 
1082 80 212 
1083 80 216 
1084 80 220 
1085 80 225 
1086 80 232 
1087 80 235 
1088 80 24 
1089 80 244 
1090 80 252 
1091 80 255 
1092 80 27 
1093 80 30 
1094 80 33 
1095 80 36 
1096 80 38 
1097 80 49 
1098 80 5 
1099 80 54 
1100 80 66 
1101 80 70 
1102 80 77 
1103 80 85 
1104 80 93 
1105 81 145 
1106 81 54 
1107 81 62 
1108 81 70 
1109 84 117 
1110 84 122 
1111 84 127 
1112 84 138 
1113 84 142 
1114 84 191 
1115 84 20 
1116 84 213 
1117 84 236 
1118 84 238 
1119 84 253 
1120 84 256 
1121 84 258 
1122 84 37 
1123 84 57 
1124 84 65 
1125 84 67 
1126 84 69 
1127 86 11 
1128 86 13 
1129 86 193 
1130 86 199 
1131 86 229 
1132 86 230 
1133 86 240 
1134 86 241 
1135 86 242 
1136 86 59 
1137 86 60 
1138 87 100 
1139 87 104 
1140 87 105 
1141 87 111 
1142 87 133 
1143 87 147 
1144 87 149 
1145 87 151 
1146 87 155 
1147 87 157 
1148 87 159 
1149 87 163 
1150 87 165 
1151 87 167 
1152 87 171 
1153 87 173 
1154 87 175 
1155 87 179 
1156 87 180 
1157 87 202 
1158 87 203 
1159 87 204 
1160 87 206 
1161 87 217 
1162 87 42 
1163 87 44 
1164 87 45 
1165 87 55 
1166 87 56 
1167 87 72 
1168 87 74 
1169 87 76 
1170 87 80 
1171 87 82 
1172 87 84 
1173 87 88 
1174 87 90 
1175 87 92 
1176 87 96 
1177 87 98 
1178 94 109 
1179 94 110 
1180 94 111 
1181 94 114 
1182 94 115 
1183 94 116 
1184 94 119 
1185 94 120 
1186 94 121 
1187 94 126 
1188 94 128 
1189 94 130 
1190 94 132 
1191 94 134 
1192 94 135 
1193 94 138 
1194 94 145 
1195 94 149 
1196 94 150 
1197 94 151 
1198 94 158 
1199 94 159 
1200 94 16 
1201 94 161 
1202 94 163 
1203 94 165 
1204 94 174 
1205 94 176 
1206 94 178 
1207 94 18 
1208 94 180 
1209 94 181 
1210 94 184 
1211 94 185 
1212 94 186 
1213 94 188 
1214 94 19 
1215 94 190 
1216 94 193 
1217 94 195 
1218 94 197 
1219 94 200 
1220 94 202 
1221 94 203 
1222 94 21 
1223 94 222 
1224 94 223 
1225 94 224 
1226 94 226 
1227 94 228 
1228 94 229 
1229 94 23 
1230 94 231 
1231 94 232 
1232 94 234 
1233 94 236 
1234 94 238 
1235 94 24 
1236 94 241 
1237 94 243 
1238 94 249 
1239 94 25 
1240 94 256 
1241 94 26 
1242 94 28 
1243 94 29 
1244 94 30 
1245 94 31 
1246 94 34 
1247 94 35 
1248 94 36 
1249 94 37 
1250 94 41 
1251 94 42 
1252 94 43 
1253 94 49 
1254 94 51 
1255 94 52 
1256 94 54 
1257 94 56 
1258 94 60 
1259 94 62 
1260 94 64 
1261 94 66 
1262 94 68 
1263 94 70 
1264 94 72 
1265 94 74 
1266 94 76 
1267 94 78 
1268 94 80 
1269 94 82 
1270 94 89 
1271 94 95 
1272 97 112 
1273 97 117 
1274 97 12 
1275 97 122 
1276 97 126 
1277 97 128 
1278 97 130 
1279 97 135 
1280 97 140 
1281 97 142 
1282 97 169 
1283 97 18 
1284 97 181 
1285 97 195 
1286 97 197 
1287 97 199 
1288 97 20 
1289 97 203 
1290 97 209 
1291 97 217 
1292 97 23 
1293 97 231 
1294 97 234 
1295 97 241 
1296 97 244 
1297 97 246 
1298 97 48 
1299 97 51 
1300 97 56 
1301 97 58 
1302 97 61 
1303 97 65 
1304 97 69 
1305 97 73 
1306 97 77 
1307 97 8 
1308 97 81 
1309 97 95 
1310 97 97 
1311 100 109 
1312 100 132 
1313 100 178 
1314 100 200 
1315 100 205 
1316 100 211 
1317 100 219 
1318 100 226 
1319 100 52 
1320 101 109 
1321 101 12 
1322 101 132 
1323 101 135 
1324 101 148 
1325 101 16 
1326 101 178 
1327 101 181 
1328 101 193 
1329 101 200 
1330 101 203 
1331 101 205 
1332 101 21 
1333 101 211 
1334 101 219 
1335 101 226 
1336 101 229 
1337 101 232 
1338 101 49 
1339 101 5 
1340 101 52 
1341 101 59 
1342 101 8 
1343 102 10 
1344 102 109 
1345 102 125 
1346 102 133 
1347 102 137 
1348 102 16 
1349 102 179 
1350 102 183 
1351 102 19 
1352 102 193 
1353 102 196 
1354 102 201 
1355 102 205 
1356 102 21 
1357 102 211 
1358 102 219 
1359 102 227 
1360 102 229 
1361 102 232 
1362 102 240 
1363 102 243 
1364 102 49 
1365 102 53 
1366 102 55 
1367 102 59 
1368 102 6 
1369 102 94 
1370 103 102 
1371 103 109 
1372 103 125 
1373 103 132 
1374 103 139 
1375 103 152 
1376 103 16 
1377 103 163 
1378 103 167 
1379 103 170 
1380 103 178 
1381 103 19 
1382 103 190 
1383 103 193 
1384 103 196 
1385 103 200 
1386 103 205 
1387 103 21 
1388 103 212 
1389 103 220 
1390 103 226 
1391 103 229 
1392 103 232 
1393 103 240 
1394 103 243 
1395 103 245 
1396 103 42 
1397 103 46 
1398 103 49 
1399 103 52 
1400 103 55 
1401 103 59 
1402 103 94 
1403 104 205 
1404 107 11 
1405 107 112 
1406 107 117 
1407 107 122 
1408 107 126 
1409 107 128 
1410 107 130 
1411 107 134 
1412 107 138 
1413 107 140 
1414 107 142 
1415 107 180 
1416 107 184 
1417 107 197 
1418 107 199 
1419 107 20 
1420 107 202 
1421 107 228 
1422 107 241 
1423 107 244 
1424 107 246 
1425 107 54 
1426 107 56 
1427 107 58 
1428 107 7 
1429 107 95 
1430 107 97 
1431 109 145 
1432 109 159 
1433 109 160 
1434 109 161 
1435 109 186 
1436 109 187 
1437 109 188 
1438 109 223 
1439 109 224 
1440 109 236 
1441 109 238 
1442 109 249 
1443 109 25 
1444 109 26 
1445 109 29 
1446 109 30 
1447 109 31 
1448 110 190 
1449 110 206 
1450 110 207 
1451 110 209 
1452 110 210 
1453 110 211 
1454 110 214 
1455 110 215 
1456 110 217 
1457 110 218 
1458 110 219 
1459 110 256 
1460 110 34 
1461 110 36 
1462 110 37 
1463 110 43 
1464 110 89 
1465 128 109 
1466 128 11 
1467 128 123 
1468 128 137 
1469 128 15 
1470 128 151 
1471 128 165 
1472 128 179 
1473 128 193 
1474 128 221 
1475 128 235 
1476 128 249 
1477 128 25 
1478 128 39 
1479 128 53 
1480 128 67 
1481 128 81 
1482 128 95 
